14° run output:
{
    "Function": "kroA750.tsp",
    "Problem dimension": [
        183,
        31,
        641,
        193,
        690,
        341,
        687,
        347,
        102,
        151,
        548,
        66,
        473,
        387,
        15,
        505,
        87,
        714,
        326,
        583,
        204,
        622,
        10,
        482,
        63,
        231,
        574,
        446,
        715,
        647,
        244,
        250,
        12,
        589,
        296,
        444,
        738,
        232,
        510,
        591,
        89,
        659,
        236,
        196,
        523,
        271,
        393,
        216,
        260,
        423,
        61,
        385,
        342,
        412,
        5,
        749,
        135,
        656,
        450,
        425,
        380,
        298,
        613,
        569,
        172,
        486,
        376,
        209,
        191,
        344,
        282,
        504,
        134,
        145,
        379,
        729,
        221,
        245,
        9,
        80,
        438,
        370,
        677,
        653,
        498,
        428,
        124,
        316,
        123,
        77,
        436,
        623,
        488,
        448,
        619,
        437,
        614,
        525,
        71,
        696,
        362,
        457,
        3,
        695,
        418,
        235,
        410,
        454,
        19,
        161,
        516,
        325,
        353,
        186,
        721,
        459,
        165,
        86,
        683,
        55,
        698,
        744,
        554,
        311,
        588,
        627,
        747,
        355,
        463,
        414,
        577,
        309,
        669,
        132,
        143,
        56,
        725,
        332,
        187,
        386,
        320,
        116,
        302,
        416,
        603,
        105,
        433,
        52,
        447,
        252,
        289,
        533,
        735,
        75,
        259,
        422,
        336,
        130,
        475,
        567,
        318,
        140,
        595,
        392,
        697,
        263,
        509,
        400,
        445,
        88,
        136,
        233,
        349,
        708,
        658,
        404,
        558,
        487,
        485,
        573,
        319,
        441,
        452,
        197,
        210,
        285,
        331,
        261,
        675,
        35,
        553,
        556,
        720,
        384,
        334,
        278,
        142,
        631,
        372,
        147,
        620,
        598,
        188,
        32,
        432,
        732,
        686,
        408,
        638,
        671,
        314,
        267,
        352,
        606,
        374,
        621,
        214,
        248,
        67,
        190,
        287,
        339,
        322,
        228,
        709,
        582,
        82,
        688,
        600,
        599,
        364,
        99,
        570,
        401,
        524,
        723,
        276,
        111,
        8,
        295,
        262,
        728,
        189,
        21,
        733,
        625,
        363,
        2,
        133,
        11,
        601,
        158,
        371,
        162,
        359,
        192,
        114,
        39,
        469,
        703,
        458,
        265,
        157,
        580,
        521,
        283,
        345,
        305,
        122,
        443,
        327,
        179,
        662,
        674,
        462,
        182,
        684,
        391,
        315,
        164,
        96,
        590,
        222,
        303,
        286,
        307,
        16,
        131,
        449,
        110,
        149,
        584,
        734,
        6,
        4,
        255,
        464,
        240,
        549,
        104,
        587,
        38,
        537,
        1,
        427,
        173,
        74,
        439,
        177,
        170,
        7,
        266,
        604,
        117,
        28,
        654,
        153,
        234,
        739,
        522,
        468,
        535,
        215,
        79,
        417,
        503,
        648,
        678,
        115,
        335,
        178,
        609,
        624,
        181,
        403,
        290,
        69,
        150,
        83,
        121,
        719,
        137,
        292,
        745,
        497,
        375,
        377,
        470,
        602,
        481,
        618,
        171,
        230,
        152,
        713,
        607,
        225,
        159,
        502,
        156,
        581,
        467,
        72,
        366,
        306,
        527,
        97,
        383,
        65,
        317,
        670,
        707,
        239,
        367,
        68,
        30,
        166,
        34,
        247,
        95,
        508,
        92,
        180,
        426,
        304,
        301,
        270,
        466,
        0,
        25,
        420,
        421,
        203,
        128,
        169,
        563,
        269,
        639,
        701,
        476,
        630,
        280,
        212,
        634,
        337,
        413,
        107,
        396,
        76,
        127,
        702,
        551,
        672,
        506,
        544,
        474,
        350,
        578,
        251,
        395,
        109,
        14,
        649,
        273,
        81,
        40,
        552,
        70,
        492,
        640,
        207,
        541,
        33,
        78,
        740,
        566,
        415,
        129,
        632,
        546,
        54,
        200,
        125,
        673,
        106,
        483,
        41,
        242,
        258,
        712,
        256,
        194,
        585,
        274,
        526,
        241,
        668,
        484,
        330,
        211,
        633,
        579,
        343,
        611,
        57,
        575,
        323,
        529,
        491,
        23,
        59,
        586,
        736,
        402,
        219,
        299,
        167,
        46,
        594,
        300,
        664,
        456,
        568,
        155,
        746,
        471,
        223,
        93,
        514,
        220,
        530,
        346,
        73,
        557,
        103,
        217,
        431,
        691,
        229,
        348,
        308,
        517,
        555,
        243,
        227,
        628,
        489,
        711,
        268,
        373,
        174,
        726,
        560,
        477,
        195,
        175,
        617,
        700,
        644,
        47,
        434,
        389,
        511,
        407,
        253,
        279,
        226,
        507,
        689,
        706,
        705,
        378,
        139,
        616,
        665,
        741,
        340,
        479,
        536,
        101,
        100,
        534,
        727,
        519,
        45,
        531,
        43,
        626,
        284,
        351,
        694,
        291,
        406,
        257,
        358,
        465,
        360,
        218,
        730,
        540,
        313,
        98,
        91,
        58,
        472,
        118,
        501,
        64,
        615,
        645,
        571,
        710,
        490,
        440,
        635,
        513,
        60,
        237,
        547,
        288,
        382,
        608,
        26,
        398,
        146,
        637,
        515,
        493,
        442,
        500,
        731,
        550,
        368,
        512,
        206,
        198,
        542,
        737,
        113,
        572,
        629,
        682,
        281,
        84,
        451,
        297,
        494,
        208,
        108,
        324,
        661,
        205,
        564,
        36,
        478,
        528,
        680,
        520,
        538,
        275,
        48,
        18,
        126,
        643,
        718,
        692,
        254,
        272,
        610,
        264,
        592,
        338,
        693,
        312,
        742,
        246,
        724,
        576,
        224,
        397,
        85,
        249,
        148,
        62,
        44,
        663,
        144,
        455,
        612,
        293,
        605,
        411,
        201,
        685,
        593,
        168,
        699,
        354,
        435,
        748,
        399,
        409,
        20,
        561,
        388,
        160,
        51,
        545,
        666,
        651,
        743,
        681,
        405,
        704,
        329,
        17,
        655,
        357,
        185,
        24,
        532,
        154,
        518,
        390,
        22,
        596,
        461,
        94,
        328,
        213,
        565,
        112,
        27,
        496,
        381,
        49,
        429,
        419,
        679,
        356,
        202,
        722,
        141,
        138,
        361,
        13,
        539,
        657,
        642,
        562,
        120,
        597,
        424,
        37,
        652,
        636,
        660,
        716,
        460,
        453,
        499,
        369,
        495,
        430,
        238,
        676,
        42,
        184,
        480,
        333,
        294,
        394,
        646,
        53,
        717,
        119,
        199,
        365,
        310,
        163,
        667,
        50,
        277,
        650,
        90,
        559,
        543,
        29,
        321,
        176
    ],
    "Global Optimum": 0,
    "Algorithm": "Genetic algorithm",
    "Parameters": {
        "population": 30,
        "offspring": 30,
        "mutation probability": 0.0013333333333333333,
        "crossover probability": 0.9
    },
    "Fitness": 965260,
    "Solution": [
        183,
        31,
        641,
        193,
        690,
        341,
        687,
        347,
        102,
        151,
        548,
        66,
        473,
        387,
        15,
        505,
        87,
        714,
        326,
        583,
        204,
        622,
        10,
        482,
        63,
        231,
        574,
        446,
        715,
        647,
        244,
        250,
        12,
        589,
        296,
        444,
        738,
        232,
        510,
        591,
        89,
        659,
        236,
        196,
        523,
        271,
        393,
        216,
        260,
        423,
        61,
        385,
        342,
        412,
        5,
        749,
        135,
        656,
        450,
        425,
        380,
        298,
        613,
        569,
        172,
        486,
        376,
        209,
        191,
        344,
        282,
        504,
        134,
        145,
        379,
        729,
        221,
        245,
        9,
        80,
        438,
        370,
        677,
        653,
        498,
        428,
        124,
        316,
        123,
        77,
        436,
        623,
        488,
        448,
        619,
        437,
        614,
        525,
        71,
        696,
        362,
        457,
        3,
        695,
        418,
        235,
        410,
        454,
        19,
        161,
        516,
        325,
        353,
        186,
        721,
        459,
        165,
        86,
        683,
        55,
        698,
        744,
        554,
        311,
        588,
        627,
        747,
        355,
        463,
        414,
        577,
        309,
        669,
        132,
        143,
        56,
        725,
        332,
        187,
        386,
        320,
        116,
        302,
        416,
        603,
        105,
        433,
        52,
        447,
        252,
        289,
        533,
        735,
        75,
        259,
        422,
        336,
        130,
        475,
        567,
        318,
        140,
        595,
        392,
        697,
        263,
        509,
        400,
        445,
        88,
        136,
        233,
        349,
        708,
        658,
        404,
        558,
        487,
        485,
        573,
        319,
        441,
        452,
        197,
        210,
        285,
        331,
        261,
        675,
        35,
        553,
        556,
        720,
        384,
        334,
        278,
        142,
        631,
        372,
        147,
        620,
        598,
        188,
        32,
        432,
        732,
        686,
        408,
        638,
        671,
        314,
        267,
        352,
        606,
        374,
        621,
        214,
        248,
        67,
        190,
        287,
        339,
        322,
        228,
        709,
        582,
        82,
        688,
        600,
        599,
        364,
        99,
        570,
        401,
        524,
        723,
        276,
        111,
        8,
        295,
        262,
        728,
        189,
        21,
        733,
        625,
        363,
        2,
        133,
        11,
        601,
        158,
        371,
        162,
        359,
        192,
        114,
        39,
        469,
        703,
        458,
        265,
        157,
        580,
        521,
        283,
        345,
        305,
        122,
        443,
        327,
        179,
        662,
        674,
        462,
        182,
        684,
        391,
        315,
        164,
        96,
        590,
        222,
        303,
        286,
        307,
        16,
        131,
        449,
        110,
        149,
        584,
        734,
        6,
        4,
        255,
        464,
        240,
        549,
        104,
        587,
        38,
        537,
        1,
        427,
        173,
        74,
        439,
        177,
        170,
        7,
        266,
        604,
        117,
        28,
        654,
        153,
        234,
        739,
        522,
        468,
        535,
        215,
        79,
        417,
        503,
        648,
        678,
        115,
        335,
        178,
        609,
        624,
        181,
        403,
        290,
        69,
        150,
        83,
        121,
        719,
        137,
        292,
        745,
        497,
        375,
        377,
        470,
        602,
        481,
        618,
        171,
        230,
        152,
        713,
        607,
        225,
        159,
        502,
        156,
        581,
        467,
        72,
        366,
        306,
        527,
        97,
        383,
        65,
        317,
        670,
        707,
        239,
        367,
        68,
        30,
        166,
        34,
        247,
        95,
        508,
        92,
        180,
        426,
        304,
        301,
        270,
        466,
        0,
        25,
        420,
        421,
        203,
        128,
        169,
        563,
        269,
        639,
        701,
        476,
        630,
        280,
        212,
        634,
        337,
        413,
        107,
        396,
        76,
        127,
        702,
        551,
        672,
        506,
        544,
        474,
        350,
        578,
        251,
        395,
        109,
        14,
        649,
        273,
        81,
        40,
        552,
        70,
        492,
        640,
        207,
        541,
        33,
        78,
        740,
        566,
        415,
        129,
        632,
        546,
        54,
        200,
        125,
        673,
        106,
        483,
        41,
        242,
        258,
        712,
        256,
        194,
        585,
        274,
        526,
        241,
        668,
        484,
        330,
        211,
        633,
        579,
        343,
        611,
        57,
        575,
        323,
        529,
        491,
        23,
        59,
        586,
        736,
        402,
        219,
        299,
        167,
        46,
        594,
        300,
        664,
        456,
        568,
        155,
        746,
        471,
        223,
        93,
        514,
        220,
        530,
        346,
        73,
        557,
        103,
        217,
        431,
        691,
        229,
        348,
        308,
        517,
        555,
        243,
        227,
        628,
        489,
        711,
        268,
        373,
        174,
        726,
        560,
        477,
        195,
        175,
        617,
        700,
        644,
        47,
        434,
        389,
        511,
        407,
        253,
        279,
        226,
        507,
        689,
        706,
        705,
        378,
        139,
        616,
        665,
        741,
        340,
        479,
        536,
        101,
        100,
        534,
        727,
        519,
        45,
        531,
        43,
        626,
        284,
        351,
        694,
        291,
        406,
        257,
        358,
        465,
        360,
        218,
        730,
        540,
        313,
        98,
        91,
        58,
        472,
        118,
        501,
        64,
        615,
        645,
        571,
        710,
        490,
        440,
        635,
        513,
        60,
        237,
        547,
        288,
        382,
        608,
        26,
        398,
        146,
        637,
        515,
        493,
        442,
        500,
        731,
        550,
        368,
        512,
        206,
        198,
        542,
        737,
        113,
        572,
        629,
        682,
        281,
        84,
        451,
        297,
        494,
        208,
        108,
        324,
        661,
        205,
        564,
        36,
        478,
        528,
        680,
        520,
        538,
        275,
        48,
        18,
        126,
        643,
        718,
        692,
        254,
        272,
        610,
        264,
        592,
        338,
        693,
        312,
        742,
        246,
        724,
        576,
        224,
        397,
        85,
        249,
        148,
        62,
        44,
        663,
        144,
        455,
        612,
        293,
        605,
        411,
        201,
        685,
        593,
        168,
        699,
        354,
        435,
        748,
        399,
        409,
        20,
        561,
        388,
        160,
        51,
        545,
        666,
        651,
        743,
        681,
        405,
        704,
        329,
        17,
        655,
        357,
        185,
        24,
        532,
        154,
        518,
        390,
        22,
        596,
        461,
        94,
        328,
        213,
        565,
        112,
        27,
        496,
        381,
        49,
        429,
        419,
        679,
        356,
        202,
        722,
        141,
        138,
        361,
        13,
        539,
        657,
        642,
        562,
        120,
        597,
        424,
        37,
        652,
        636,
        660,
        716,
        460,
        453,
        499,
        369,
        495,
        430,
        238,
        676,
        42,
        184,
        480,
        333,
        294,
        394,
        646,
        53,
        717,
        119,
        199,
        365,
        310,
        163,
        667,
        50,
        277,
        650,
        90,
        559,
        543,
        29,
        321,
        176
    ],
    "Nb of functions evaluations": 200010,
    "Computational time in seconds": 1972.308985710144,
    "Stopping criterion in evaluations": 200000
}